unsat
(:eliminated-vars              1
 :max-memory                   18.34
 :memory                       18.24
 :nlsat-conflicts              4
 :nlsat-irrational-assignments 1
 :nlsat-propagations           19
 :nlsat-stages                 4
 :num-allocs                   73875
 :rlimit-count                 21213
 :time                         0.01
 :total-time                   0.02)
